1 -1 -2 0
1 3 1 0
1 3 4 0
1 -5 6 0
1 -5 -7 0
1 -8 -9 0
1 -8 -10 0
1 8 -11 0
1 2 -12 0
1 -2 7 0
1 -13 -5 0
1 -13 14 0
1 -10 -15 0
1 15 -16 0
1 15 -17 0
1 -18 19 0
1 18 -20 0
1 -21 -15 0
1 22 -23 0
1 -24 15 0
1 24 -22 0
1 25 10 0
1 -26 -23 0
1 26 -27 0
1 -26 28 0
1 23 -29 0
1 -30 -31 0
1 -14 -32 0
1 14 -33 0
1 -33 34 0
1 -33 35 0
1 -33 -11 0
1 -33 -14 0
1 11 32 0
1 11 -4 0
1 9 -8 0
1 -34 36 0
1 -34 -37 0
1 34 18 0
1 -38 -27 0
1 -39 40 0
1 -39 -41 0
1 41 34 0
1 27 -6 0
1 20 38 0
1 28 -23 0
1 -28 -36 0
1 -36 27 0
1 36 40 0
1 42 13 0
